words_easy_train/words_365_UNSAT.qaiger
aag 43 16 0 1 27
26
22
24
4
12
28
32
18
6
8
14
2
30
16
10
20
87
34 24 15
36 35 27
38 36 17
40 26 16
42 40 34
44 43 29
46 45 39
48 23 12
50 22 13
52 21 10
54 20 11
56 19 8
58 56 55
60 59 53
62 61 51
64 63 49
66 64 46
68 25 14
70 68 41
72 27 17
74 73 28
76 74 71
78 77 31
80 78 67
82 81 32
84 80 33
86 85 83
i0 1 x2[4]
i1 1 x2[2]
i2 1 x2[3]
i3 2 y1[1]
i4 2 y1[5]
i5 1 x2[5]
i6 1 x2[7]
i7 1 x2[0]
i8 2 y1[2]
i9 2 y1[3]
i10 2 y1[6]
i11 2 y1[0]
i12 1 x2[6]
i13 2 y1[7]
i14 2 y1[4]
i15 1 x2[1]
o0 bv[0]
c
simplified
  <
    >> 3
      2 y1
    add
      -167
      1 x2
