words_easy_train/words_365_UNSAT.qaiger.qdimacs
p cnf 43 82
a 9 10 11 12 13 14 15 16 0
e 1 2 3 4 5 6 7 8 17 18 19 20 21 22 23 24 25 26 27 28 29 30 31 32 33 34 35 36 37 38 39 40 41 42 43 0
-12 7 17 0
12 -17 0
-7 -17 0
17 13 18 0
-17 -18 0
-13 -18 0
-18 8 19 0
18 -19 0
-8 -19 0
-13 -8 20 0
13 -20 0
8 -20 0
-20 -17 21 0
20 -21 0
17 -21 0
21 14 22 0
-21 -22 0
-14 -22 0
22 19 23 0
-22 -23 0
-19 -23 0
11 -6 24 0
-11 -24 0
6 -24 0
-11 6 25 0
11 -25 0
-6 -25 0
10 -5 26 0
-10 -26 0
5 -26 0
-10 5 27 0
10 -27 0
-5 -27 0
9 -4 28 0
-9 -28 0
4 -28 0
-28 27 29 0
28 -29 0
-27 -29 0
29 26 30 0
-29 -30 0
-26 -30 0
30 25 31 0
-30 -31 0
-25 -31 0
31 24 32 0
-31 -32 0
-24 -32 0
-32 -23 33 0
32 -33 0
23 -33 0
12 -7 34 0
-12 -34 0
7 -34 0
-34 20 35 0
34 -35 0
-20 -35 0
13 8 36 0
-13 -36 0
-8 -36 0
36 -14 37 0
-36 -37 0
14 -37 0
-37 35 38 0
37 -38 0
-35 -38 0
38 15 39 0
-38 -39 0
-15 -39 0
-39 33 40 0
39 -40 0
-33 -40 0
40 -16 41 0
-40 -41 0
16 -41 0
-40 16 42 0
40 -42 0
-16 -42 0
42 41 43 0
-42 -43 0
-41 -43 0
-43 0
